50, 14239
845, 947
758, 858
421, 519
259, 358
512, 612
405, 507
784, 882
304, 404
477, 578
584, 684
909, 1011
505, 605
282, 384
756, 857
619, 719
251, 351
910, 1010
983, 1082
811, 911
903, 1002
311, 409
730, 828
899, 1000
684, 785
473, 573
101, 199
435, 536
611, 713
914, 1016
967, 1069
478, 580
866, 968
261, 361
806, 905
549, 650
15, 114
720, 822
399, 501
825, 927
669, 769
2, 104
494, 594
868, 968
244, 345
326, 428
871, 973
192, 293
568, 666
239, 340
968, 1068
